ilp_joint/output/molting_ilp.lp
Maximize
  4.6109934116262178e-04 Z_399_0_0 + 0.00354951579856634 Z_399_0_1
   + 0.5267970234022885 Z_399_0_2 + 9.712127791097646e-04 Z_399_0_3
   + 0.3682211486788727 Z_399_0_4 + 9.777901368011098e-04 Z_594_0_0
   + 0.00288244385853351 Z_594_0_1 + 0.7197568029178327 Z_594_0_2
   + 0.00115220617610683 Z_594_0_3 + 0.1752307569107256 Z_594_0_4
Subject To
 constraint1_3990: Z_399_0_0 + Z_399_0_1 + Z_399_0_2 + Z_399_0_3
   + Z_399_0_4 <= 1
 constraint1_5940: Z_594_0_0 + Z_594_0_1 + Z_594_0_2 + Z_594_0_3
   + Z_594_0_4 <= 1
 constraint2_5530: <= 1
 constraint2_5531: <= 1
 constraint2_5532: <= 1
 constraint2_5533: <= 1
 constraint2_3990: Z_399_0_0 <= 1
 constraint2_3991: Z_399_0_1 <= 1
 constraint2_3992: Z_399_0_2 <= 1
 constraint2_3993: Z_399_0_3 <= 1
 constraint2_5940: Z_594_0_0 <= 1
 constraint2_5941: Z_594_0_1 <= 1
 constraint2_5942: Z_594_0_2 <= 1
 constraint2_5943: Z_594_0_3 <= 1
Bounds
Binaries
 Z_399_0_0 Z_399_0_1 Z_399_0_2 Z_399_0_3 Z_399_0_4 Z_594_0_0 Z_594_0_1
 Z_594_0_2 Z_594_0_3 Z_594_0_4
End
