ilp_joint/output/molting_ilp.mps
NAME molting_srl_ilp
* Max problem is converted into Min one
ROWS
 N  OBJ
 L  constraint1_3990
 L  constraint1_5940
 L  constraint2_5530
 L  constraint2_5531
 L  constraint2_5532
 L  constraint2_5533
 L  constraint2_3990
 L  constraint2_3991
 L  constraint2_3992
 L  constraint2_3993
 L  constraint2_5940
 L  constraint2_5941
 L  constraint2_5942
 L  constraint2_5943
COLUMNS
    MARKER    'MARKER'                 'INTORG'
    Z_399_0_0  OBJ       -4.6109934116262178e-04
    Z_399_0_0  constraint1_3990  1
    Z_399_0_0  constraint2_3990  1
    Z_399_0_1  OBJ       -3.5495157985663398e-03
    Z_399_0_1  constraint1_3990  1
    Z_399_0_1  constraint2_3991  1
    Z_399_0_2  OBJ       -5.2679702340228851e-01
    Z_399_0_2  constraint1_3990  1
    Z_399_0_2  constraint2_3992  1
    Z_399_0_3  OBJ       -9.7121277910976460e-04
    Z_399_0_3  constraint1_3990  1
    Z_399_0_3  constraint2_3993  1
    Z_399_0_4  OBJ       -3.6822114867887268e-01
    Z_399_0_4  constraint1_3990  1
    Z_594_0_0  OBJ       -9.7779013680110980e-04
    Z_594_0_0  constraint1_5940  1
    Z_594_0_0  constraint2_5940  1
    Z_594_0_1  OBJ       -2.8824438585335118e-03
    Z_594_0_1  constraint1_5940  1
    Z_594_0_1  constraint2_5941  1
    Z_594_0_2  OBJ       -7.1975680291783273e-01
    Z_594_0_2  constraint1_5940  1
    Z_594_0_2  constraint2_5942  1
    Z_594_0_3  OBJ       -1.1522061761068277e-03
    Z_594_0_3  constraint1_5940  1
    Z_594_0_3  constraint2_5943  1
    Z_594_0_4  OBJ       -1.7523075691072557e-01
    Z_594_0_4  constraint1_5940  1
    MARKER    'MARKER'                 'INTEND'
RHS
    RHS1      constraint1_3990  1
    RHS1      constraint1_5940  1
    RHS1      constraint2_5530  1
    RHS1      constraint2_5531  1
    RHS1      constraint2_5532  1
    RHS1      constraint2_5533  1
    RHS1      constraint2_3990  1
    RHS1      constraint2_3991  1
    RHS1      constraint2_3992  1
    RHS1      constraint2_3993  1
    RHS1      constraint2_5940  1
    RHS1      constraint2_5941  1
    RHS1      constraint2_5942  1
    RHS1      constraint2_5943  1
BOUNDS
 UP BND1      Z_399_0_0  1
 UP BND1      Z_399_0_1  1
 UP BND1      Z_399_0_2  1
 UP BND1      Z_399_0_3  1
 UP BND1      Z_399_0_4  1
 UP BND1      Z_594_0_0  1
 UP BND1      Z_594_0_1  1
 UP BND1      Z_594_0_2  1
 UP BND1      Z_594_0_3  1
 UP BND1      Z_594_0_4  1
ENDATA
