ilp_joint/output/molting_ilp.sol
# Solution for model molting_srl_ilp
# Objective value = 1.2465538263201212e+00
Z_399_0_0 0
Z_399_0_1 0
Z_399_0_2 1
Z_399_0_3 0
Z_399_0_4 0
Z_594_0_0 0
Z_594_0_1 0
Z_594_0_2 1
Z_594_0_3 0
Z_594_0_4 0
